
Gurobi 6.5.2 (win64) logging started 07/23/16 03:59:34


Gurobi 6.5.2 (win64) logging started 07/23/16 03:59:34

Optimize a model with 23360 rows, 1427 columns and 50663 nonzeros
Coefficient statistics:
  Matrix range    [4e-06, 1e+03]
  Objective range [1e+00, 1e+00]
  Bounds range    [1e+00, 1e+00]
  RHS range       [1e+00, 1e+03]
Found heuristic solution: objective 1794.56
Presolve removed 23333 rows and 1400 columns
Presolve time: 0.01s
Presolved: 27 rows, 27 columns, 82 nonzeros
Found heuristic solution: objective 273.3128478
Variable types: 27 continuous, 0 integer (0 binary)

Root relaxation: objective 2.214382e+02, 20 iterations, 0.00 seconds

    Nodes    |    Current Node    |     Objective Bounds      |     Work
 Expl Unexpl |  Obj  Depth IntInf | Incumbent    BestBd   Gap | It/Node Time

*    0     0               0     221.4381722  221.43817  0.00%     -    0s

Explored 0 nodes (20 simplex iterations) in 0.02 seconds
Thread count was 8 (of 8 available processors)

Optimal solution found (tolerance 1.00e-04)
Best objective 2.214381721682e+02, best bound 2.214381721682e+02, gap 0.0%

Wrote requested result file 'H2\instance30\\Results30EC_Sol5.lp'

